%%%mzn-stat: initTime=0.119507786
%%%mzn-stat: objective=202
%%%mzn-stat: nodes=1948343
%%%mzn-stat: restarts=3193
%%%mzn-stat: peakDepth=926
%%%mzn-stat: solveTime=754.093724827
%%%mzn-stat: variables=1866
%%%mzn-stat: propagators=1481
%%%mzn-stat: failures=835828
%%%mzn-stat: propagations=37254443
%%%mzn-stat: nogoods=835828
%%%mzn-stat: AverageConflictSize=112.35997119024488
%%%mzn-stat: NumUnitNogoodsLearned=183
%%%mzn-stat: AverageLearnedNogoodLength=117.63755222366323
%%%mzn-stat: AverageBacktrackAmount=0
%%%mzn-stat: AverageLbd=28.76893571404643
%%%mzn-stat-end
maxleg = 202;
succ = array1d(1..100,[77, 29, 6, 68, 85, 86, 23, 49, 84, 60, 30, 22, 90, 63, 28, 18, 24, 52, 69, 40, 20, 37, 76, 99, 44, 11, 89, 78, 98, 41, 50, 21, 36, 87, 26, 70, 27, 43, 25, 14, 16, 12, 96, 4, 10, 39, 73, 71, 74, 91, 62, 94, 7, 47, 57, 35, 92, 53, 31, 83, 1, 79, 51, 13, 67, 75, 34, 95, 64, 45, 82, 65, 55, 58, 15, 80, 81, 88, 38, 33, 56, 59, 66, 19, 9, 54, 93, 32, 97, 48, 3, 8, 100, 46, 5, 17, 61, 42, 72, 2]);
% time elapsed: 756.85 s
----------
==========
% time elapsed: 756.85 s
%%%mzn-stat: initTime=0.119507786
%%%mzn-stat: objective=202
%%%mzn-stat: nodes=1948343
%%%mzn-stat: restarts=3193
%%%mzn-stat: peakDepth=926
%%%mzn-stat: solveTime=754.09372876
%%%mzn-stat: variables=1866
%%%mzn-stat: propagators=1481
%%%mzn-stat: failures=835828
%%%mzn-stat: propagations=37254443
%%%mzn-stat: nogoods=835828
%%%mzn-stat: AverageConflictSize=112.35997119024488
%%%mzn-stat: NumUnitNogoodsLearned=183
%%%mzn-stat: AverageLearnedNogoodLength=117.63755222366323
%%%mzn-stat: AverageBacktrackAmount=0
%%%mzn-stat: AverageLbd=28.76893571404643
%%%mzn-stat-end
